
Log started (V12.5.1.0) Mon Jan  6 00:39:01 2014


Problem 'a.lp.lp' read.
Read time = 0.07 sec. (2.07 ticks)
Row 'R0000577' infeasible, all entries at implied bounds.
Presolve time = 0.03 sec. (5.39 ticks)

Root node processing (before b&c):
  Real time             =    0.04 sec. (7.80 ticks)
Parallel b&c, 4 threads:
  Real time             =    0.00 sec. (0.00 ticks)
  Sync time (average)   =    0.00 sec.
  Wait time (average)   =    0.00 sec.
                          ------------
Total (root+branch&cut) =    0.04 sec. (7.80 ticks)


MIP - Integer infeasible.
Current MIP best bound =  0.0000000000e+00 (gap is infinite)
Solution time =    0.08 sec.  Iterations = 0  Nodes = 0
Deterministic time = 7.80 ticks  (94.32 ticks/sec)


Log started (V12.5.1.0) Mon Jan  6 00:41:23 2014

File 'a.mps' not found.
No file read.

Log started (V12.5.1.0) Mon Jan  6 00:41:37 2014


Selected objective sense:  MINIMIZE
Selected objective  name:  OBJROW
Selected RHS        name:  RHS
Selected bound      name:  BOUND

Problem 'a.mps.gz' read.
Read time = 0.09 sec. (6.94 ticks)
Row 'R0000577' infeasible, all entries at implied bounds.
Presolve time = 0.02 sec. (5.39 ticks)

Root node processing (before b&c):
  Real time             =    0.03 sec. (7.80 ticks)
Parallel b&c, 4 threads:
  Real time             =    0.00 sec. (0.00 ticks)
  Sync time (average)   =    0.00 sec.
  Wait time (average)   =    0.00 sec.
                          ------------
Total (root+branch&cut) =    0.03 sec. (7.80 ticks)


MIP - Integer infeasible.
Current MIP best bound =  0.0000000000e+00 (gap is infinite)
Solution time =    0.03 sec.  Iterations = 0  Nodes = 0
Deterministic time = 7.80 ticks  (244.39 ticks/sec)


Log started (V12.5.1.0) Mon Jan  6 00:56:52 2014

File 'a.mps' not found.
No file read.

Selected objective sense:  MINIMIZE
Selected objective  name:  OBJROW
Selected RHS        name:  RHS
Selected bound      name:  BOUND

Problem 'a.mps.gz' read.
Read time = 0.07 sec. (5.64 ticks)
Tried aggregator 1 time.
MIP Presolve eliminated 4920 rows and 0 columns.
MIP Presolve modified 1845 coefficients.
Reduced MIP has 21960 rows, 3651 columns, and 67725 nonzeros.
Reduced MIP has 3651 binaries, 0 generals, 0 SOSs, and 0 indicators.
Presolve time = 1.51 sec. (1018.02 ticks)
Probing time = 0.02 sec. (2.63 ticks)
Tried aggregator 1 time.
Reduced MIP has 21960 rows, 3651 columns, and 67725 nonzeros.
Reduced MIP has 3651 binaries, 0 generals, 0 SOSs, and 0 indicators.
Presolve time = 0.20 sec. (102.70 ticks)
Probing time = 0.09 sec. (2.94 ticks)
Clique table members: 21960.
MIP emphasis: balance optimality and feasibility.
MIP search method: dynamic search.
Parallel mode: deterministic, using up to 4 threads.
Root relaxation solution time = 1.82 sec. (683.22 ticks)

        Nodes                                         Cuts/
   Node  Left     Objective  IInf  Best Integer    Best Bound    ItCnt     Gap

      0     0        3.0000  3542                      3.0000       10         

Root node processing (before b&c):
  Real time             =   22.57 sec. (5311.25 ticks)
Parallel b&c, 4 threads:
  Real time             =    0.00 sec. (0.00 ticks)
  Sync time (average)   =    0.00 sec.
  Wait time (average)   =    0.00 sec.
                          ------------
Total (root+branch&cut) =   22.57 sec. (5311.25 ticks)


MIP - Aborted, no integer solution.
Current MIP best bound =  3.0000000000e+00 (gap is infinite)
Solution time =   22.58 sec.  Iterations = 10  Nodes = 0 (1)
Deterministic time = 5311.25 ticks  (235.26 ticks/sec)

